[VALIDATOR STDOUT]
Type-checking pick-package
...action passes type checking.
Type-checking drop-package
...action passes type checking.
Type-checking move
...action passes type checking.
Checking plan: /home/jfan5/Safety-gen/runs/benchmark/optic/delivery_20260215_225923/delivery/optic_results/delivery_size5_packages1_seed5001.plan
Plan to validate:

Plan size: 13
1:
(move t1 c_3_3 c_4_3)
 
2:
(move t1 c_4_3 c_4_4)
 
3:
(pick-package t1 p2 c_4_4)
 
4:
(move t1 c_4_4 c_4_3)
 
5:
(move t1 c_4_3 c_3_3)
 
6:
(move t1 c_3_3 c_3_2)
 
7:
(drop-package t1 p2 c_3_2)
 
8:
(move t1 c_3_2 c_3_3)
 
9:
(move t1 c_3_3 c_4_3)
 
10:
(pick-package t1 p1 c_4_3)
 
11:
(move t1 c_4_3 c_3_3)
 
12:
(move t1 c_3_3 c_3_2)
 
13:
(drop-package t1 p1 c_3_2)
 

Plan Validation details
-----------------------

Checking next happening (time 1)
Deleting (at t1 c_3_3)
Adding (at t1 c_4_3)

Checking next happening (time 2)
Deleting (at t1 c_4_3)
Adding (at t1 c_4_4)

Checking next happening (time 3)
Deleting (at p2 c_4_4)
Deleting (empty t1)
Adding (carrying t1 p2)

Checking next happening (time 4)
Deleting (at t1 c_4_4)
Adding (at t1 c_4_3)

Checking next happening (time 5)
Deleting (at t1 c_4_3)
Adding (at t1 c_3_3)

Checking next happening (time 6)
Deleting (at t1 c_3_3)
Adding (at t1 c_3_2)

Checking next happening (time 7)
Deleting (carrying t1 p2)
Adding (empty t1)
Adding (at p2 c_3_2)

Checking next happening (time 8)
Deleting (at t1 c_3_2)
Adding (at t1 c_3_3)

Checking next happening (time 9)
Deleting (at t1 c_3_3)
Adding (at t1 c_4_3)

Checking next happening (time 10)
Deleting (at p1 c_4_3)
Deleting (empty t1)
Adding (carrying t1 p1)

Checking next happening (time 11)
Deleting (at t1 c_4_3)
Adding (at t1 c_3_3)

Checking next happening (time 12)
Deleting (at t1 c_3_3)
Adding (at t1 c_3_2)

Checking next happening (time 13)
Deleting (carrying t1 p1)
Adding (empty t1)
Adding (at p1 c_3_2)
Plan executed successfully - checking goal
Plan valid
Final value: 13 

Successful plans:
Value: 13
 /home/jfan5/Safety-gen/runs/benchmark/optic/delivery_20260215_225923/delivery/optic_results/delivery_size5_packages1_seed5001.plan 13
